;; translated from ./ctigar/dillig15.c.vmt
;; original benchmark available at: https://es-static.fbk.eu/people/griggio/ic3ia/index.html
;; author: Alberto Griggio <griggio@fbk.eu>
(set-logic HORN)
(declare-fun state (Bool Bool Bool Bool Int Int Int Int) Bool)
(assert (forall ((|.s.0| Bool) (|.s.1| Bool) (|.s.0.next| Bool) (|.s.1.next| Bool) (|.s.2.next| Bool) (|.s.3.next| Bool) (|main.i.next| Int) (|main.i| Int) (|main.j.next| Int) (|main.j| Int) (|main.k.next| Int) (|main.k| Int) (|main.n.next| Int) (|main.n| Int) (|.s.3| Bool) (|.s.2| Bool)) (=> (let ((.def_17 (not .s.3)))
(let ((.def_14 (not .s.2)))
(let ((.def_10 (not .s.1)))
(let ((.def_12 (and .def_10 .s.0)))
(let ((.def_15 (and .def_12 .def_14)))
(let ((.def_18 (and .def_15 .def_17)))
.def_18)))))) (state |.s.1| |.s.0| |.s.2| |.s.3| |main.i| |main.j| |main.k| |main.n|))))
(assert (forall ((|.s.0| Bool) (|.s.1| Bool) (|.s.0.next| Bool) (|.s.1.next| Bool) (|.s.2.next| Bool) (|.s.3.next| Bool) (|main.i.next| Int) (|main.i| Int) (|main.j.next| Int) (|main.j| Int) (|main.k.next| Int) (|main.k| Int) (|main.n.next| Int) (|main.n| Int) (|.s.3| Bool) (|.s.2| Bool)) (=> (and (state |.s.1| |.s.0| |.s.2| |.s.3| |main.i| |main.j| |main.k| |main.n|) (let ((.def_47 (not .s.0)))
(let ((.def_10 (not .s.1)))
(let ((.def_75 (and .def_10 .def_47)))
(let ((.def_14 (not .s.2)))
(let ((.def_129 (and .def_14 .def_75)))
(let ((.def_17 (not .s.3)))
(let ((.def_227 (and .def_17 .def_129)))
(let ((.def_228 (not .def_227)))
(let ((.def_55 (not .s.0.next)))
(let ((.def_54 (not .s.1.next)))
(let ((.def_56 (and .def_54 .def_55)))
(let ((.def_53 (not .s.2.next)))
(let ((.def_57 (and .def_53 .def_56)))
(let ((.def_52 (not .s.3.next)))
(let ((.def_58 (and .def_52 .def_57)))
(let ((.def_32 (= main.i main.i.next)))
(let ((.def_59 (and .def_32 .def_58)))
(let ((.def_36 (= main.j main.j.next)))
(let ((.def_60 (and .def_36 .def_59)))
(let ((.def_40 (= main.k main.k.next)))
(let ((.def_61 (and .def_40 .def_60)))
(let ((.def_44 (= main.n main.n.next)))
(let ((.def_62 (and .def_44 .def_61)))
(let ((.def_229 (or .def_62 .def_228)))
(let ((.def_25 (and .s.0.next .s.1.next)))
(let ((.def_105 (and .def_25 .def_53)))
(let ((.def_221 (and .def_52 .def_105)))
(let ((.def_222 (and .def_32 .def_221)))
(let ((.def_223 (and .def_36 .def_222)))
(let ((.def_224 (and .def_40 .def_223)))
(let ((.def_225 (and .def_44 .def_224)))
(let ((.def_209 (<= 1 main.n)))
(let ((.def_12 (and .def_10 .s.0)))
(let ((.def_15 (and .def_12 .def_14)))
(let ((.def_18 (and .def_15 .def_17)))
(let ((.def_219 (and .def_18 .def_209)))
(let ((.def_220 (not .def_219)))
(let ((.def_226 (or .def_220 .def_225)))
(let ((.def_230 (and .def_226 .def_229)))
(let ((.def_67 (and .s.1.next .def_55)))
(let ((.def_168 (and .def_53 .def_67)))
(let ((.def_213 (and .def_52 .def_168)))
(let ((.def_214 (and .def_32 .def_213)))
(let ((.def_215 (and .def_36 .def_214)))
(let ((.def_216 (and .def_40 .def_215)))
(let ((.def_217 (and .def_44 .def_216)))
(let ((.def_210 (not .def_209)))
(let ((.def_211 (and .def_18 .def_210)))
(let ((.def_212 (not .def_211)))
(let ((.def_218 (or .def_212 .def_217)))
(let ((.def_231 (and .def_218 .def_230)))
(let ((.def_48 (and .s.1 .def_47)))
(let ((.def_99 (and .def_14 .def_48)))
(let ((.def_206 (and .def_17 .def_99)))
(let ((.def_207 (not .def_206)))
(let ((.def_208 (or .def_62 .def_207)))
(let ((.def_232 (and .def_208 .def_231)))
(let ((.def_84 (and .s.0.next .def_54)))
(let ((.def_85 (and .s.2.next .def_84)))
(let ((.def_200 (and .def_52 .def_85)))
(let ((.def_201 (and .def_32 .def_200)))
(let ((.def_202 (and .def_36 .def_201)))
(let ((.def_203 (and .def_40 .def_202)))
(let ((.def_204 (and .def_44 .def_203)))
(let ((.def_188 (<= main.n main.k)))
(let ((.def_19 (and .s.1 .s.0)))
(let ((.def_95 (and .def_14 .def_19)))
(let ((.def_187 (and .def_17 .def_95)))
(let ((.def_198 (and .def_187 .def_188)))
(let ((.def_199 (not .def_198)))
(let ((.def_205 (or .def_199 .def_204)))
(let ((.def_233 (and .def_205 .def_232)))
(let ((.def_114 (and .s.2.next .def_56)))
(let ((.def_192 (and .def_52 .def_114)))
(let ((.def_193 (and .def_32 .def_192)))
(let ((.def_194 (and .def_36 .def_193)))
(let ((.def_195 (and .def_40 .def_194)))
(let ((.def_196 (and .def_44 .def_195)))
(let ((.def_189 (not .def_188)))
(let ((.def_190 (and .def_187 .def_189)))
(let ((.def_191 (not .def_190)))
(let ((.def_197 (or .def_191 .def_196)))
(let ((.def_234 (and .def_197 .def_233)))
(let ((.def_76 (and .s.2 .def_75)))
(let ((.def_184 (and .def_17 .def_76)))
(let ((.def_185 (not .def_184)))
(let ((.def_186 (or .def_62 .def_185)))
(let ((.def_235 (and .def_186 .def_234)))
(let ((.def_178 (= main.j.next 0)))
(let ((.def_68 (and .s.2.next .def_67)))
(let ((.def_123 (and .def_52 .def_68)))
(let ((.def_179 (and .def_123 .def_178)))
(let ((.def_180 (and .def_32 .def_179)))
(let ((.def_181 (and .def_40 .def_180)))
(let ((.def_182 (and .def_44 .def_181)))
(let ((.def_64 (and .def_12 .s.2)))
(let ((.def_175 (and .def_17 .def_64)))
(let ((.def_176 (not .def_175)))
(let ((.def_183 (or .def_176 .def_182)))
(let ((.def_236 (and .def_183 .def_235)))
(let ((.def_169 (and .s.3.next .def_168)))
(let ((.def_170 (and .def_32 .def_169)))
(let ((.def_171 (and .def_36 .def_170)))
(let ((.def_172 (and .def_40 .def_171)))
(let ((.def_173 (and .def_44 .def_172)))
(let ((.def_154 (* (- 1) main.n)))
(let ((.def_155 (+ main.j .def_154)))
(let ((.def_156 (<= .def_155 (- 1))))
(let ((.def_165 (not .def_156)))
(let ((.def_49 (and .s.2 .def_48)))
(let ((.def_153 (and .def_17 .def_49)))
(let ((.def_166 (and .def_153 .def_165)))
(let ((.def_167 (not .def_166)))
(let ((.def_174 (or .def_167 .def_173)))
(let ((.def_237 (and .def_174 .def_236)))
(let ((.def_27 (and .def_25 .s.2.next)))
(let ((.def_159 (and .def_27 .def_52)))
(let ((.def_160 (and .def_32 .def_159)))
(let ((.def_161 (and .def_36 .def_160)))
(let ((.def_162 (and .def_40 .def_161)))
(let ((.def_163 (and .def_44 .def_162)))
(let ((.def_157 (and .def_153 .def_156)))
(let ((.def_158 (not .def_157)))
(let ((.def_164 (or .def_158 .def_163)))
(let ((.def_238 (and .def_164 .def_237)))
(let ((.def_147 (and .s.3.next .def_57)))
(let ((.def_144 (* (- 1) main.j.next)))
(let ((.def_145 (+ main.j .def_144)))
(let ((.def_146 (= .def_145 (- 1))))
(let ((.def_148 (and .def_146 .def_147)))
(let ((.def_149 (and .def_32 .def_148)))
(let ((.def_150 (and .def_40 .def_149)))
(let ((.def_151 (and .def_44 .def_150)))
(let ((.def_20 (and .s.2 .def_19)))
(let ((.def_142 (and .def_17 .def_20)))
(let ((.def_143 (not .def_142)))
(let ((.def_152 (or .def_143 .def_151)))
(let ((.def_239 (and .def_152 .def_238)))
(let ((.def_135 (and .def_53 .def_84)))
(let ((.def_136 (and .s.3.next .def_135)))
(let ((.def_132 (* (- 1) main.k.next)))
(let ((.def_133 (+ main.k .def_132)))
(let ((.def_134 (= .def_133 1)))
(let ((.def_137 (and .def_134 .def_136)))
(let ((.def_138 (and .def_32 .def_137)))
(let ((.def_139 (and .def_36 .def_138)))
(let ((.def_140 (and .def_44 .def_139)))
(let ((.def_130 (and .s.3 .def_129)))
(let ((.def_131 (not .def_130)))
(let ((.def_141 (or .def_131 .def_140)))
(let ((.def_240 (and .def_141 .def_239)))
(let ((.def_124 (and .def_32 .def_123)))
(let ((.def_125 (and .def_36 .def_124)))
(let ((.def_126 (and .def_40 .def_125)))
(let ((.def_127 (and .def_44 .def_126)))
(let ((.def_121 (and .def_15 .s.3)))
(let ((.def_122 (not .def_121)))
(let ((.def_128 (or .def_122 .def_127)))
(let ((.def_241 (and .def_128 .def_240)))
(let ((.def_115 (and .s.3.next .def_114)))
(let ((.def_116 (and .def_32 .def_115)))
(let ((.def_117 (and .def_36 .def_116)))
(let ((.def_118 (and .def_40 .def_117)))
(let ((.def_119 (and .def_44 .def_118)))
(let ((.def_101 (<= main.n main.j)))
(let ((.def_100 (and .s.3 .def_99)))
(let ((.def_112 (and .def_100 .def_101)))
(let ((.def_113 (not .def_112)))
(let ((.def_120 (or .def_113 .def_119)))
(let ((.def_242 (and .def_120 .def_241)))
(let ((.def_106 (and .s.3.next .def_105)))
(let ((.def_107 (and .def_32 .def_106)))
(let ((.def_108 (and .def_36 .def_107)))
(let ((.def_109 (and .def_40 .def_108)))
(let ((.def_110 (and .def_44 .def_109)))
(let ((.def_102 (not .def_101)))
(let ((.def_103 (and .def_100 .def_102)))
(let ((.def_104 (not .def_103)))
(let ((.def_111 (or .def_104 .def_110)))
(let ((.def_243 (and .def_111 .def_242)))
(let ((.def_96 (and .s.3 .def_95)))
(let ((.def_97 (not .def_96)))
(let ((.def_98 (or .def_62 .def_97)))
(let ((.def_244 (and .def_98 .def_243)))
(let ((.def_80 (<= main.k (- 1))))
(let ((.def_77 (and .s.3 .def_76)))
(let ((.def_92 (and .def_77 .def_80)))
(let ((.def_93 (not .def_92)))
(let ((.def_29 (and .def_27 .s.3.next)))
(let ((.def_33 (and .def_29 .def_32)))
(let ((.def_37 (and .def_33 .def_36)))
(let ((.def_41 (and .def_37 .def_40)))
(let ((.def_45 (and .def_41 .def_44)))
(let ((.def_94 (or .def_45 .def_93)))
(let ((.def_245 (and .def_94 .def_244)))
(let ((.def_86 (and .s.3.next .def_85)))
(let ((.def_87 (and .def_32 .def_86)))
(let ((.def_88 (and .def_36 .def_87)))
(let ((.def_89 (and .def_40 .def_88)))
(let ((.def_90 (and .def_44 .def_89)))
(let ((.def_81 (not .def_80)))
(let ((.def_82 (and .def_77 .def_81)))
(let ((.def_83 (not .def_82)))
(let ((.def_91 (or .def_83 .def_90)))
(let ((.def_246 (and .def_91 .def_245)))
(let ((.def_69 (and .s.3.next .def_68)))
(let ((.def_70 (and .def_32 .def_69)))
(let ((.def_71 (and .def_36 .def_70)))
(let ((.def_72 (and .def_40 .def_71)))
(let ((.def_73 (and .def_44 .def_72)))
(let ((.def_65 (and .s.3 .def_64)))
(let ((.def_66 (not .def_65)))
(let ((.def_74 (or .def_66 .def_73)))
(let ((.def_247 (and .def_74 .def_246)))
(let ((.def_50 (and .s.3 .def_49)))
(let ((.def_51 (not .def_50)))
(let ((.def_63 (or .def_51 .def_62)))
(let ((.def_248 (and .def_63 .def_247)))
(let ((.def_21 (and .s.3 .def_20)))
(let ((.def_22 (not .def_21)))
(let ((.def_46 (or .def_22 .def_45)))
(let ((.def_249 (and .def_46 .def_248)))
.def_249))))))))))))))))))))))))))))))))))))))))))))))))))))))))))))))))))))))))))))))))))))))))))))))))))))))))))))))))))))))))))))))))))))))))))))))))))))))))))))))))))))))))))))))))))))))))))))))))))))))))))))))))))))))))))))))) (state |.s.1.next| |.s.0.next| |.s.2.next| |.s.3.next| |main.i.next| |main.j.next| |main.k.next| |main.n.next|))))
(assert (forall ((|.s.0| Bool) (|.s.1| Bool) (|.s.0.next| Bool) (|.s.1.next| Bool) (|.s.2.next| Bool) (|.s.3.next| Bool) (|main.i.next| Int) (|main.i| Int) (|main.j.next| Int) (|main.j| Int) (|main.k.next| Int) (|main.k| Int) (|main.n.next| Int) (|main.n| Int) (|.s.3| Bool) (|.s.2| Bool)) (=> (state |.s.1| |.s.0| |.s.2| |.s.3| |main.i| |main.j| |main.k| |main.n|) (let ((.def_19 (and .s.1 .s.0)))
(let ((.def_20 (and .s.2 .def_19)))
(let ((.def_21 (and .s.3 .def_20)))
(let ((.def_22 (not .def_21)))
.def_22)))))))
(check-sat)
